C Se 
 1.0000000000000000
     9.1956863403000000    0.0000000000000000    0.0000000000000000
    -4.5978240752000001    7.9637310245000004    0.0000000000000000
     0.0000000000000000    0.0000000000000000   20.0000000000000000
  C  Se 
   9   9
Cartesian
  0.0233035408091575  1.7909555428710282 10.6054980377875570
  4.6220001928898249  4.4404534712185653 10.5999388994548802
  6.1517308969693074  1.7906030758311449 10.5996076344406642
  0.0243077783791862  7.0987396314989102 10.5886830107846635
  3.0874411244541058  7.0972805629195017 10.6057408244016180
  3.0894708089260305  1.7888556565899509 10.6004479215652054
  1.5575667286664723  4.4436578672043447 10.5889365094704644
 -3.0396022713527220  7.0956170103125222 10.6056175748607995
 -1.5077955464106028  4.4433263178220361 10.5882510583454206
  4.6215020396092861  0.9017812823946137  9.5878866309770281
  3.0871936093290686  3.5592189771914260  9.5883579347068935
  0.0248011781866788  3.5622071960020474  9.5800964858296673
  1.5533904090173767  6.2114844511919642  9.5800294592516728
  7.6856898926964261  0.9042534729048434  9.6009342713064445
  1.5558642015338990  0.9032370365708349  9.6018302608104840
  6.1576350391620229  3.5604943103719253  9.5873604442476204
 -1.5050297451304475  6.2115521286477762  9.5800893046980686
  4.6208594166367956  6.2122126044878065  9.6013137639636437

